SDVRP instances/p01/p01_1090_tsplib0_splitx10_0.vrp
NAME:.\SDVRP_splitx10_
BEST_KNOWN: 0
COMMENT: 0
DIMENSION: 304
CAPACITY: 1600
EDGE_WEIGHT_FORMAT: FUNCTION
EDGE_WEIGHT_TYPE: EXACT_2D
NODE_COORD_SECTION
1 0.00000 0.00000
2 7 12
3 7 12
4 7 12
5 7 12
6 7 12
7 7 12
8 7 12
9 7 12
10 7 12
11 19 9
12 19 9
13 19 9
14 19 9
15 22 24
16 22 24
17 22 24
18 22 24
19 22 24
20 22 24
21 -10 -14
22 -10 -14
23 -10 -14
24 -10 -14
25 -10 -14
26 -10 -14
27 -10 -14
28 -10 -14
29 10 -10
30 10 -10
31 10 -10
32 10 -10
33 10 -10
34 10 -10
35 10 -10
36 -9 7
37 -9 7
38 -9 7
39 -9 7
40 -9 7
41 -9 7
42 -9 7
43 -9 7
44 -9 7
45 -13 23
46 -13 23
47 -13 23
48 -13 23
49 -13 23
50 -13 23
51 -13 23
52 -13 23
53 1 22
54 1 22
55 1 22
56 1 22
57 1 22
58 1 22
59 22 -7
60 22 -7
61 22 -7
62 22 -7
63 21 -19
64 21 -19
65 21 -19
66 21 -19
67 12 1
68 12 1
69 12 1
70 12 1
71 12 1
72 12 1
73 12 1
74 12 1
75 12 1
76 1 -8
77 1 -8
78 1 -8
79 1 -8
80 -25 -15
81 -25 -15
82 -25 -15
83 -25 -15
84 -25 -15
85 -18 2
86 -18 2
87 -18 2
88 -18 2
89 -18 2
90 6 -24
91 6 -24
92 6 -24
93 6 -24
94 6 -24
95 22 1
96 22 1
97 22 1
98 22 1
99 22 1
100 22 1
101 -3 -17
102 -3 -17
103 -3 -17
104 -3 -17
105 -13 -7
106 -13 -7
107 -13 -7
108 -13 -7
109 -17 -27
110 -17 -27
111 -17 -27
112 -17 -27
113 -17 -27
114 -17 -27
115 -17 -27
116 -17 -27
117 -17 -27
118 27 18
119 27 18
120 27 18
121 27 18
122 27 18
123 27 18
124 27 18
125 32 2
126 32 2
127 32 2
128 32 2
129 32 2
130 32 2
131 12 17
132 12 17
133 12 17
134 -14 17
135 -14 17
136 -14 17
137 -14 17
138 -14 17
139 -22 12
140 -22 12
141 -22 12
142 -22 12
143 -22 12
144 -22 12
145 -23 -2
146 -23 -2
147 -23 -2
148 -23 -2
149 -23 -2
150 -23 -2
151 -23 -2
152 -23 -2
153 -3 28
154 -3 28
155 -3 28
156 -3 28
157 -3 28
158 -3 28
159 -3 28
160 -3 28
161 0 8
162 0 8
163 0 8
164 0 8
165 13 27
166 13 27
167 13 27
168 13 27
169 13 27
170 13 27
171 28 8
172 28 8
173 28 8
174 28 -13
175 28 -13
176 28 -13
177 28 -13
178 28 -13
179 28 -13
180 7 29
181 7 29
182 7 29
183 7 29
184 7 29
185 7 29
186 7 29
187 7 29
188 8 6
189 8 6
190 8 6
191 8 6
192 8 6
193 8 6
194 8 6
195 8 6
196 16 -30
197 16 -30
198 16 -30
199 16 -30
200 16 -30
201 16 -30
202 16 -30
203 31 -7
204 31 -7
205 31 -7
206 31 -7
207 32 23
208 32 23
209 32 23
210 32 23
211 32 23
212 32 23
213 32 23
214 32 23
215 33 29
216 33 29
217 33 29
218 33 29
219 33 29
220 33 29
221 33 29
222 2 -18
223 2 -18
224 2 -18
225 2 -18
226 2 -18
227 2 -18
228 15 -5
229 15 -5
230 15 -5
231 15 -5
232 15 -5
233 15 -5
234 15 -5
235 29 -25
236 29 -25
237 29 -25
238 29 -25
239 29 -25
240 29 -25
241 29 -25
242 -25 -34
243 -25 -34
244 -25 -34
245 -25 -34
246 -25 -34
247 -25 -34
248 -25 -34
249 -20 -23
250 -20 -23
251 -9 -30
252 -9 -30
253 -25 24
254 -25 24
255 -25 24
256 -25 24
257 0 -25
258 0 -25
259 0 -25
260 0 -25
261 0 -25
262 0 -25
263 0 -25
264 9 -30
265 9 -30
266 9 -30
267 9 -30
268 2 -1
269 2 -1
270 2 -1
271 2 -1
272 2 -1
273 -5 -8
274 -5 -8
275 -5 -8
276 -5 -8
277 -5 -8
278 -5 -8
279 -5 -8
280 -5 -8
281 -5 15
282 -5 15
283 -5 15
284 -5 15
285 -5 15
286 -5 15
287 -5 15
288 18 -12
289 18 -12
290 18 -12
291 18 -12
292 18 -12
293 18 -12
294 18 -12
295 18 -12
296 26 -3
297 26 -3
298 26 -3
299 26 -3
300 26 -3
301 26 -3
302 26 -3
303 26 -3
304 26 -3
DEMAND_SECTION
1 0
2 320
3 320
4 320
5 160
6 80
7 16
8 16
9 16
10 2
11 320
12 320
13 16
14 4
15 320
16 80
17 16
18 16
19 16
20 2
21 320
22 320
23 160
24 16
25 16
26 16
27 16
28 6
29 320
30 320
31 320
32 320
33 16
34 16
35 8
36 320
37 320
38 320
39 160
40 80
41 16
42 16
43 16
44 12
45 320
46 320
47 80
48 16
49 16
50 16
51 16
52 6
53 160
54 80
55 16
56 16
57 16
58 12
59 320
60 80
61 16
62 4
63 160
64 16
65 16
66 8
67 320
68 320
69 320
70 160
71 16
72 16
73 16
74 16
75 6
76 320
77 320
78 16
79 14
80 320
81 320
82 80
83 16
84 14
85 320
86 320
87 160
88 16
89 4
90 320
91 320
92 320
93 80
94 10
95 320
96 160
97 16
98 16
99 16
100 12
101 160
102 80
103 16
104 14
105 320
106 320
107 160
108 10
109 320
110 320
111 320
112 160
113 80
114 16
115 16
116 16
117 2
118 320
119 320
120 160
121 16
122 16
123 16
124 2
125 160
126 80
127 16
128 16
129 16
130 2
131 320
132 320
133 320
134 320
135 320
136 320
137 16
138 14
139 320
140 320
141 160
142 80
143 16
144 4
145 320
146 320
147 320
148 160
149 16
150 16
151 16
152 2
153 320
154 320
155 320
156 80
157 16
158 16
159 16
160 2
161 160
162 16
163 16
164 8
165 320
166 320
167 320
168 160
169 16
170 14
171 320
172 16
173 14
174 160
175 80
176 16
177 16
178 16
179 2
180 320
181 320
182 320
183 160
184 80
185 16
186 16
187 8
188 320
189 320
190 320
191 160
192 16
193 16
194 16
195 12
196 320
197 320
198 320
199 160
200 80
201 16
202 4
203 320
204 80
205 16
206 14
207 320
208 320
209 320
210 160
211 80
212 16
213 16
214 8
215 320
216 320
217 80
218 16
219 16
220 16
221 2
222 320
223 320
224 320
225 160
226 16
227 14
228 320
229 320
230 80
231 16
232 16
233 16
234 2
235 320
236 320
237 80
238 16
239 16
240 16
241 12
242 320
243 320
244 320
245 160
246 80
247 16
248 4
249 320
250 80
251 160
252 80
253 320
254 320
255 320
256 10
257 320
258 320
259 320
260 16
261 16
262 16
263 2
264 320
265 320
266 320
267 320
268 320
269 160
270 16
271 16
272 8
273 320
274 320
275 80
276 16
277 16
278 16
279 16
280 6
281 320
282 320
283 16
284 16
285 16
286 16
287 6
288 320
289 320
290 320
291 160
292 80
293 16
294 16
295 8
296 320
297 320
298 160
299 80
300 16
301 16
302 16
303 16
304 6
DEPOT_SECTION
1
-1
EOF