SDVRP instances/p01/p01_1090_tsplib0_splitx10_0.sol
303 -1 207 210 211 121 119 118 123 122 117 120 -3 7 179 181 186 185 182 180 184 183 -4 5 6 8 9 2 132 130 131 -11 13 12 10 94 97 99 98 95 96 72 68 73 71 74 -19 16 14 15 17 18 165 168 167 166 164 169 -24 25 23 109 114 115 108 111 110 249 248 -27 21 26 20 22 273 274 275 278 276 272 -30 28 31 29 33 34 32 -40 35 43 42 36 37 84 87 88 86 -41 39 38 253 255 254 252 134 136 137 -48 47 46 44 50 45 51 49 280 281 283 286 282 284 285 -59 204 203 205 202 173 178 176 175 174 177 235 234 237 238 240 236 239 -60 61 58 291 290 288 287 289 292 294 293 -62 64 63 65 197 195 196 200 198 199 201 -67 70 69 66 228 227 233 232 230 231 229 -76 77 78 75 267 268 270 269 271 -83 82 80 81 79 105 106 107 104 -85 144 146 147 145 151 149 150 148 -91 265 264 263 266 -92 90 93 89 223 225 226 224 222 -100 102 103 101 261 262 260 259 256 257 258 221 -135 133 141 138 139 142 143 140 -155 154 156 153 158 157 152 159 54 53 57 55 52 56 162 160 163 161 -172 170 171 129 125 128 126 124 127 301 302 300 303 299 298 295 296 297 -191 193 192 188 187 189 190 194 -208 213 206 209 212 215 216 218 214 219 217 220 -251 250 247 241 242 246 245 243 244 113 112 116 277 279 0 





OBJ=
1520.748
BEST_KNOWN=
0.000